;; sat

(declare-const x1 sl.list.loc)
(declare-const x2 sl.list.loc)
(declare-const x3 sl.list.loc)
(declare-const x4 sl.list.loc)
(declare-const x5 sl.list.loc)
(declare-const x6 sl.list.loc)
(declare-const x7 sl.list.loc)
(declare-const x8 sl.list.loc)
(declare-const x9 sl.list.loc)
(declare-const x10 sl.list.loc)
(declare-const x11 sl.list.loc)
(declare-const x12 sl.list.loc)
(declare-const x13 sl.list.loc)
(declare-const x14 sl.list.loc)
(declare-const x15 sl.list.loc)
(declare-const x16 sl.list.loc)
(declare-const x17 sl.list.loc)
(declare-const x18 sl.list.loc)
(declare-const x19 sl.list.loc)
(declare-const x20 sl.list.loc)
(declare-const x21 sl.list.loc)
(declare-const x22 sl.list.loc)
(declare-const x23 sl.list.loc)
(declare-const x24 sl.list.loc)
(declare-const x25 sl.list.loc)
(declare-const x26 sl.list.loc)
(declare-const x27 sl.list.loc)
(declare-const x28 sl.list.loc)
(declare-const x29 sl.list.loc)
(declare-const x30 sl.list.loc)
(declare-const x31 sl.list.loc)
(declare-const x32 sl.list.loc)
(declare-const x33 sl.list.loc)
(declare-const x34 sl.list.loc)
(declare-const x35 sl.list.loc)
(declare-const x36 sl.list.loc)
(declare-const x37 sl.list.loc)
(declare-const x38 sl.list.loc)
(declare-const x39 sl.list.loc)
(declare-const x40 sl.list.loc)

(assert (and (sl.sepcon (sl.sepcon (sl.sepcon (sl.sepcon (sl.sepcon (sl.sepcon (sl.sepcon (sl.sepcon (sl.sepcon (sl.sepcon (sl.sepcon (sl.sepcon (sl.sepcon (sl.sepcon (sl.sepcon (sl.sepcon (sl.sepcon (sl.sepcon (sl.sepcon (sl.sepcon (sl.sepcon (sl.sepcon (sl.sepcon (sl.sepcon (sl.sepcon (sl.sepcon (sl.sepcon (sl.sepcon (sl.sepcon (sl.sepcon (sl.sepcon (sl.sepcon (sl.sepcon (sl.sepcon (sl.sepcon (sl.sepcon (sl.sepcon (sl.sepcon (sl.sepcon (sl.sepcon (sl.sepcon (sl.sepcon (sl.sepcon (sl.sepcon (sl.sepcon (sl.sepcon (sl.sepcon (sl.sepcon (sl.sepcon (sl.sepcon (sl.sepcon (sl.list.eq sl.list.null sl.list.null)
 (sl.list.neq sl.list.null x1)
)
 (sl.list.neq sl.list.null x2)
)
 (sl.list.neq sl.list.null x3)
)
 (sl.list.neq x1 x2)
)
 (sl.list.neq x2 x3)
)
 (sl.list.neq sl.list.null x5)
)
 (sl.list.neq sl.list.null x6)
)
 (sl.list.neq sl.list.null x7)
)
 (sl.list.neq x5 x6)
)
 (sl.list.neq x6 x7)
)
 (sl.list.neq sl.list.null x9)
)
 (sl.list.neq sl.list.null x10)
)
 (sl.list.neq sl.list.null x11)
)
 (sl.list.neq x9 x10)
)
 (sl.list.neq x10 x11)
)
 (sl.list.neq sl.list.null x13)
)
 (sl.list.neq sl.list.null x14)
)
 (sl.list.neq sl.list.null x15)
)
 (sl.list.neq x13 x14)
)
 (sl.list.neq x14 x15)
)
 (sl.list.neq sl.list.null x17)
)
 (sl.list.neq sl.list.null x18)
)
 (sl.list.neq sl.list.null x19)
)
 (sl.list.neq x17 x18)
)
 (sl.list.neq x18 x19)
)
 (sl.list.neq sl.list.null x21)
)
 (sl.list.neq sl.list.null x22)
)
 (sl.list.neq sl.list.null x23)
)
 (sl.list.neq x21 x22)
)
 (sl.list.neq x22 x23)
)
 (sl.list.neq sl.list.null x25)
)
 (sl.list.neq sl.list.null x26)
)
 (sl.list.neq sl.list.null x27)
)
 (sl.list.neq x25 x26)
)
 (sl.list.neq x26 x27)
)
 (sl.list.neq sl.list.null x29)
)
 (sl.list.neq sl.list.null x30)
)
 (sl.list.neq sl.list.null x31)
)
 (sl.list.neq x29 x30)
)
 (sl.list.neq x30 x31)
)
 (sl.list.neq sl.list.null x33)
)
 (sl.list.neq sl.list.null x34)
)
 (sl.list.neq sl.list.null x35)
)
 (sl.list.neq x33 x34)
)
 (sl.list.neq x34 x35)
)
 (sl.list.neq sl.list.null x37)
)
 (sl.list.neq sl.list.null x38)
)
 (sl.list.neq sl.list.null x39)
)
 (sl.list.neq x37 x38)
)
 (sl.list.neq x38 x39)
)
 (sl.sepcon (sl.sepcon (sl.sepcon (sl.sepcon (sl.sepcon (sl.sepcon (sl.sepcon (sl.sepcon (sl.sepcon (sl.sepcon (sl.sepcon (sl.sepcon (sl.sepcon (sl.sepcon (sl.sepcon (sl.sepcon (sl.sepcon (sl.sepcon (sl.sepcon (sl.list.seg x39 x37)
 (sl.list.next x37 x39)
)
 (sl.list.seg x35 x33)
)
 (sl.list.next x33 x35)
)
 (sl.list.seg x31 x29)
)
 (sl.list.next x29 x31)
)
 (sl.list.seg x27 x25)
)
 (sl.list.next x25 x27)
)
 (sl.list.seg x23 x21)
)
 (sl.list.next x21 x23)
)
 (sl.list.seg x19 x17)
)
 (sl.list.next x17 x19)
)
 (sl.list.seg x15 x13)
)
 (sl.list.next x13 x15)
)
 (sl.list.seg x11 x9)
)
 (sl.list.next x9 x11)
)
 (sl.list.seg x7 x5)
)
 (sl.list.next x5 x7)
)
 (sl.list.seg x3 x1)
)
 (sl.list.next x1 x3)
)
)
 (not (sl.sepcon (sl.sepcon (sl.sepcon (sl.sepcon (sl.sepcon (sl.sepcon (sl.sepcon (sl.sepcon (sl.sepcon (sl.sepcon (sl.sepcon (sl.sepcon (sl.sepcon (sl.sepcon (sl.sepcon (sl.sepcon (sl.sepcon (sl.sepcon (sl.sepcon (sl.list.seg x40 x37)
 (sl.list.next x37 x40)
)
 (sl.list.seg x36 x33)
)
 (sl.list.next x33 x36)
)
 (sl.list.seg x32 x29)
)
 (sl.list.next x29 x32)
)
 (sl.list.seg x28 x25)
)
 (sl.list.next x25 x28)
)
 (sl.list.seg x24 x21)
)
 (sl.list.next x21 x24)
)
 (sl.list.seg x20 x17)
)
 (sl.list.next x17 x20)
)
 (sl.list.seg x16 x13)
)
 (sl.list.next x13 x16)
)
 (sl.list.seg x12 x9)
)
 (sl.list.next x9 x12)
)
 (sl.list.seg x8 x5)
)
 (sl.list.next x5 x8)
)
 (sl.list.seg x4 x1)
)
 (sl.list.next x1 x4)
)
))
)

